Instance Name : rc102
Date : 2022-07-19
Solution
Route 1 : 42 44 61 81 68 55
Route 2 : 69 88 53 10 13 17 12 98
Route 3 : 14 47 73 79 78 60 100 70
Route 4 : 82 11 15 16 9 97 75 58
Route 5 : 91 95 63 76 51 84 56 66
Route 6 : 64 57 22 49 20 24 83
Route 7 : 94 31 29 27 26 89 85 80
Route 8 : 65 99 86 87 59 74 52
Route 9 : 39 36 40 38 41 43 35 37 72
Route 10 : 2 45 8 7 6 46 4 5 3 1
Route 11 : 92 62 67 71 54
Route 12 : 50 33 28 30 32 34 93 96
Route 13 : 19 23 21 18 48 25 77
Route 14 : 90
